p cnf 476 1614
c p weight -189 1 0
c p weight 189 -1 0
c p weight 193 6.12323399573676603586882014729198302312846062338790031898128063403419218957424163818359375E-17 0
c p weight -193 1 0
c p weight 194 1 0
c p weight -194 1 0
c p weight -191 1 0
c p weight 191 -1 0
c p weight -195 1 0
c p weight 195 -1 0
c p weight -197 1 0
c p weight 197 -1 0
c p weight -200 1 0
c p weight 200 -1 0
c p weight -203 1 0
c p weight 203 -1 0
c p weight -206 1 0
c p weight 206 -1 0
c p weight -209 1 0
c p weight 209 -1 0
c p weight -212 1 0
c p weight 212 -1 0
c p weight -215 1 0
c p weight 215 -1 0
c p weight -218 1 0
c p weight 218 -1 0
c p weight -221 1 0
c p weight 221 -1 0
c p weight -224 1 0
c p weight 224 -1 0
c p weight -227 1 0
c p weight 227 -1 0
c p weight -230 1 0
c p weight 230 -1 0
c p weight -233 1 0
c p weight 233 -1 0
c p weight -236 1 0
c p weight 236 -1 0
c p weight -239 1 0
c p weight 239 -1 0
c p weight -242 1 0
c p weight 242 -1 0
c p weight -245 1 0
c p weight 245 -1 0
c p weight -248 1 0
c p weight 248 -1 0
c p weight -251 1 0
c p weight 251 -1 0
c p weight -254 1 0
c p weight 254 -1 0
c p weight -257 1 0
c p weight 257 -1 0
c p weight -260 1 0
c p weight 260 -1 0
c p weight -263 1 0
c p weight 263 -1 0
c p weight -266 1 0
c p weight 266 -1 0
c p weight -269 1 0
c p weight 269 -1 0
c p weight -272 1 0
c p weight 272 -1 0
c p weight -275 1 0
c p weight 275 -1 0
c p weight -278 1 0
c p weight 278 -1 0
c p weight -281 1 0
c p weight 281 -1 0
c p weight -284 1 0
c p weight 284 -1 0
c p weight -287 1 0
c p weight 287 -1 0
c p weight -290 1 0
c p weight 290 -1 0
c p weight -293 1 0
c p weight 293 -1 0
c p weight -296 1 0
c p weight 296 -1 0
c p weight -299 1 0
c p weight 299 -1 0
c p weight -302 1 0
c p weight 302 -1 0
c p weight -305 1 0
c p weight 305 -1 0
c p weight -308 1 0
c p weight 308 -1 0
c p weight -311 1 0
c p weight 311 -1 0
c p weight -314 1 0
c p weight 314 -1 0
c p weight -317 1 0
c p weight 317 -1 0
c p weight -320 1 0
c p weight 320 -1 0
c p weight -323 1 0
c p weight 323 -1 0
c p weight -326 1 0
c p weight 326 -1 0
c p weight -329 1 0
c p weight 329 -1 0
c p weight -332 1 0
c p weight 332 -1 0
c p weight -335 1 0
c p weight 335 -1 0
c p weight -338 1 0
c p weight 338 -1 0
c p weight -341 1 0
c p weight 341 -1 0
c p weight -344 1 0
c p weight 344 -1 0
c p weight -347 1 0
c p weight 347 -1 0
c p weight -350 1 0
c p weight 350 -1 0
c p weight -353 1 0
c p weight 353 -1 0
c p weight -356 1 0
c p weight 356 -1 0
c p weight -359 1 0
c p weight 359 -1 0
c p weight -362 1 0
c p weight 362 -1 0
c p weight -365 1 0
c p weight 365 -1 0
c p weight -368 1 0
c p weight 368 -1 0
c p weight -371 1 0
c p weight 371 -1 0
c p weight -374 1 0
c p weight 374 -1 0
c p weight -377 1 0
c p weight 377 -1 0
c p weight -380 1 0
c p weight 380 -1 0
c p weight -383 1 0
c p weight 383 -1 0
c p weight -386 1 0
c p weight 386 -1 0
c p weight -389 1 0
c p weight 389 -1 0
c p weight -392 1 0
c p weight 392 -1 0
c p weight -395 1 0
c p weight 395 -1 0
c p weight -398 1 0
c p weight 398 -1 0
c p weight -401 1 0
c p weight 401 -1 0
c p weight -404 1 0
c p weight 404 -1 0
c p weight -407 1 0
c p weight 407 -1 0
c p weight -410 1 0
c p weight 410 -1 0
c p weight -413 1 0
c p weight 413 -1 0
c p weight -416 1 0
c p weight 416 -1 0
c p weight -419 1 0
c p weight 419 -1 0
c p weight -422 1 0
c p weight 422 -1 0
c p weight -425 1 0
c p weight 425 -1 0
c p weight -428 1 0
c p weight 428 -1 0
c p weight -431 1 0
c p weight 431 -1 0
c p weight -434 1 0
c p weight 434 -1 0
c p weight -437 1 0
c p weight 437 -1 0
c p weight -440 1 0
c p weight 440 -1 0
c p weight -443 1 0
c p weight 443 -1 0
c p weight -446 1 0
c p weight 446 -1 0
c p weight -449 1 0
c p weight 449 -1 0
c p weight -452 1 0
c p weight 452 -1 0
c p weight -455 1 0
c p weight 455 -1 0
c p weight -458 1 0
c p weight 458 -1 0
c p weight -461 1 0
c p weight 461 -1 0
c p weight -464 1 0
c p weight 464 -1 0
c p weight -467 1 0
c p weight 467 -1 0
c p weight -470 1 0
c p weight 470 -1 0
c p weight -473 1 0
c p weight 473 -1 0
c p weight 476 0.5 0
c p weight -476 1 0
476 0
-187 0
-185 0
-183 0
-181 0
-179 0
-177 0
-175 0
-173 0
-171 0
-169 0
-167 0
-165 0
-163 0
-161 0
-159 0
-157 0
-155 0
-153 0
-151 0
-149 0
-147 0
-145 0
-143 0
-141 0
-139 0
-137 0
-135 0
-133 0
-131 0
-129 0
-127 0
-125 0
-123 0
-121 0
-119 0
-117 0
-115 0
-113 0
-111 0
-109 0
-107 0
-105 0
-103 0
-101 0
-99 0
-97 0
-95 0
-93 0
-91 0
-89 0
-87 0
-85 0
-83 0
-81 0
-79 0
-77 0
-75 0
-73 0
-71 0
-69 0
-67 0
-65 0
-63 0
-61 0
-59 0
-57 0
-55 0
-53 0
-51 0
-49 0
-47 0
-45 0
-43 0
-41 0
-39 0
-37 0
-35 0
-33 0
-31 0
-29 0
-27 0
-25 0
-23 0
-21 0
-19 0
-17 0
-15 0
-13 0
-11 0
-9 0
-7 0
-5 0
-3 0
-1 0
-189 187 0
-189 188 0
189 -187 -188 0
190 187 -188 0
190 -187 188 0
-190 187 188 0
-190 -187 -188 0
-191 192 0
-191 190 0
-191 -187 0
191 -192 187 -190 0
192 -187 190 0
-192 187 190 0
-193 190 0
192 -193 -187 0
-192 -193 187 0
192 193 187 -190 0
-192 193 -187 -190 0
-194 190 0
192 -194 187 0
-192 -194 -187 0
192 194 -187 -190 0
-192 194 187 -190 0
-195 192 0
-195 190 0
195 -192 -190 0
196 192 -190 0
196 -192 190 0
-196 192 190 0
-196 -192 -190 0
-197 192 0
-197 186 0
-197 185 -196 0
-197 -185 196 0
197 -192 185 196 -186 0
197 -192 -185 -196 -186 0
199 192 -185 0
199 -192 185 0
-199 192 185 0
-199 -192 -185 0
198 196 -186 0
198 -196 186 0
-198 196 186 0
-198 -196 -186 0
-200 199 0
-200 184 0
-200 183 -186 0
-200 -183 186 0
200 -199 183 186 -184 0
200 -199 -183 -186 -184 0
202 199 -183 0
202 -199 183 0
-202 199 183 0
-202 -199 -183 0
201 186 -184 0
201 -186 184 0
-201 186 184 0
-201 -186 -184 0
-203 202 0
-203 182 0
-203 181 -184 0
-203 -181 184 0
203 -202 181 184 -182 0
203 -202 -181 -184 -182 0
205 202 -181 0
205 -202 181 0
-205 202 181 0
-205 -202 -181 0
204 184 -182 0
204 -184 182 0
-204 184 182 0
-204 -184 -182 0
-206 205 0
-206 180 0
-206 179 -182 0
-206 -179 182 0
206 -205 179 182 -180 0
206 -205 -179 -182 -180 0
208 205 -179 0
208 -205 179 0
-208 205 179 0
-208 -205 -179 0
207 182 -180 0
207 -182 180 0
-207 182 180 0
-207 -182 -180 0
-209 208 0
-209 178 0
-209 177 -180 0
-209 -177 180 0
209 -208 177 180 -178 0
209 -208 -177 -180 -178 0
211 208 -177 0
211 -208 177 0
-211 208 177 0
-211 -208 -177 0
210 180 -178 0
210 -180 178 0
-210 180 178 0
-210 -180 -178 0
-212 211 0
-212 176 0
-212 175 -178 0
-212 -175 178 0
212 -211 175 178 -176 0
212 -211 -175 -178 -176 0
214 211 -175 0
214 -211 175 0
-214 211 175 0
-214 -211 -175 0
213 178 -176 0
213 -178 176 0
-213 178 176 0
-213 -178 -176 0
-215 214 0
-215 174 0
-215 173 -176 0
-215 -173 176 0
215 -214 173 176 -174 0
215 -214 -173 -176 -174 0
217 214 -173 0
217 -214 173 0
-217 214 173 0
-217 -214 -173 0
216 176 -174 0
216 -176 174 0
-216 176 174 0
-216 -176 -174 0
-218 217 0
-218 172 0
-218 171 -174 0
-218 -171 174 0
218 -217 171 174 -172 0
218 -217 -171 -174 -172 0
220 217 -171 0
220 -217 171 0
-220 217 171 0
-220 -217 -171 0
219 174 -172 0
219 -174 172 0
-219 174 172 0
-219 -174 -172 0
-221 220 0
-221 170 0
-221 169 -172 0
-221 -169 172 0
221 -220 169 172 -170 0
221 -220 -169 -172 -170 0
223 220 -169 0
223 -220 169 0
-223 220 169 0
-223 -220 -169 0
222 172 -170 0
222 -172 170 0
-222 172 170 0
-222 -172 -170 0
-224 223 0
-224 168 0
-224 167 -170 0
-224 -167 170 0
224 -223 167 170 -168 0
224 -223 -167 -170 -168 0
226 223 -167 0
226 -223 167 0
-226 223 167 0
-226 -223 -167 0
225 170 -168 0
225 -170 168 0
-225 170 168 0
-225 -170 -168 0
-227 226 0
-227 166 0
-227 165 -168 0
-227 -165 168 0
227 -226 165 168 -166 0
227 -226 -165 -168 -166 0
229 226 -165 0
229 -226 165 0
-229 226 165 0
-229 -226 -165 0
228 168 -166 0
228 -168 166 0
-228 168 166 0
-228 -168 -166 0
-230 229 0
-230 164 0
-230 163 -166 0
-230 -163 166 0
230 -229 163 166 -164 0
230 -229 -163 -166 -164 0
232 229 -163 0
232 -229 163 0
-232 229 163 0
-232 -229 -163 0
231 166 -164 0
231 -166 164 0
-231 166 164 0
-231 -166 -164 0
-233 232 0
-233 162 0
-233 161 -164 0
-233 -161 164 0
233 -232 161 164 -162 0
233 -232 -161 -164 -162 0
235 232 -161 0
235 -232 161 0
-235 232 161 0
-235 -232 -161 0
234 164 -162 0
234 -164 162 0
-234 164 162 0
-234 -164 -162 0
-236 235 0
-236 160 0
-236 159 -162 0
-236 -159 162 0
236 -235 159 162 -160 0
236 -235 -159 -162 -160 0
238 235 -159 0
238 -235 159 0
-238 235 159 0
-238 -235 -159 0
237 162 -160 0
237 -162 160 0
-237 162 160 0
-237 -162 -160 0
-239 238 0
-239 158 0
-239 157 -160 0
-239 -157 160 0
239 -238 157 160 -158 0
239 -238 -157 -160 -158 0
241 238 -157 0
241 -238 157 0
-241 238 157 0
-241 -238 -157 0
240 160 -158 0
240 -160 158 0
-240 160 158 0
-240 -160 -158 0
-242 241 0
-242 156 0
-242 155 -158 0
-242 -155 158 0
242 -241 155 158 -156 0
242 -241 -155 -158 -156 0
244 241 -155 0
244 -241 155 0
-244 241 155 0
-244 -241 -155 0
243 158 -156 0
243 -158 156 0
-243 158 156 0
-243 -158 -156 0
-245 244 0
-245 154 0
-245 153 -156 0
-245 -153 156 0
245 -244 153 156 -154 0
245 -244 -153 -156 -154 0
247 244 -153 0
247 -244 153 0
-247 244 153 0
-247 -244 -153 0
246 156 -154 0
246 -156 154 0
-246 156 154 0
-246 -156 -154 0
-248 247 0
-248 152 0
-248 151 -154 0
-248 -151 154 0
248 -247 151 154 -152 0
248 -247 -151 -154 -152 0
250 247 -151 0
250 -247 151 0
-250 247 151 0
-250 -247 -151 0
249 154 -152 0
249 -154 152 0
-249 154 152 0
-249 -154 -152 0
-251 250 0
-251 150 0
-251 149 -152 0
-251 -149 152 0
251 -250 149 152 -150 0
251 -250 -149 -152 -150 0
253 250 -149 0
253 -250 149 0
-253 250 149 0
-253 -250 -149 0
252 152 -150 0
252 -152 150 0
-252 152 150 0
-252 -152 -150 0
-254 253 0
-254 148 0
-254 147 -150 0
-254 -147 150 0
254 -253 147 150 -148 0
254 -253 -147 -150 -148 0
256 253 -147 0
256 -253 147 0
-256 253 147 0
-256 -253 -147 0
255 150 -148 0
255 -150 148 0
-255 150 148 0
-255 -150 -148 0
-257 256 0
-257 146 0
-257 145 -148 0
-257 -145 148 0
257 -256 145 148 -146 0
257 -256 -145 -148 -146 0
259 256 -145 0
259 -256 145 0
-259 256 145 0
-259 -256 -145 0
258 148 -146 0
258 -148 146 0
-258 148 146 0
-258 -148 -146 0
-260 259 0
-260 144 0
-260 143 -146 0
-260 -143 146 0
260 -259 143 146 -144 0
260 -259 -143 -146 -144 0
262 259 -143 0
262 -259 143 0
-262 259 143 0
-262 -259 -143 0
261 146 -144 0
261 -146 144 0
-261 146 144 0
-261 -146 -144 0
-263 262 0
-263 142 0
-263 141 -144 0
-263 -141 144 0
263 -262 141 144 -142 0
263 -262 -141 -144 -142 0
265 262 -141 0
265 -262 141 0
-265 262 141 0
-265 -262 -141 0
264 144 -142 0
264 -144 142 0
-264 144 142 0
-264 -144 -142 0
-266 265 0
-266 140 0
-266 139 -142 0
-266 -139 142 0
266 -265 139 142 -140 0
266 -265 -139 -142 -140 0
268 265 -139 0
268 -265 139 0
-268 265 139 0
-268 -265 -139 0
267 142 -140 0
267 -142 140 0
-267 142 140 0
-267 -142 -140 0
-269 268 0
-269 138 0
-269 137 -140 0
-269 -137 140 0
269 -268 137 140 -138 0
269 -268 -137 -140 -138 0
271 268 -137 0
271 -268 137 0
-271 268 137 0
-271 -268 -137 0
270 140 -138 0
270 -140 138 0
-270 140 138 0
-270 -140 -138 0
-272 271 0
-272 136 0
-272 135 -138 0
-272 -135 138 0
272 -271 135 138 -136 0
272 -271 -135 -138 -136 0
274 271 -135 0
274 -271 135 0
-274 271 135 0
-274 -271 -135 0
273 138 -136 0
273 -138 136 0
-273 138 136 0
-273 -138 -136 0
-275 274 0
-275 134 0
-275 133 -136 0
-275 -133 136 0
275 -274 133 136 -134 0
275 -274 -133 -136 -134 0
277 274 -133 0
277 -274 133 0
-277 274 133 0
-277 -274 -133 0
276 136 -134 0
276 -136 134 0
-276 136 134 0
-276 -136 -134 0
-278 277 0
-278 132 0
-278 131 -134 0
-278 -131 134 0
278 -277 131 134 -132 0
278 -277 -131 -134 -132 0
280 277 -131 0
280 -277 131 0
-280 277 131 0
-280 -277 -131 0
279 134 -132 0
279 -134 132 0
-279 134 132 0
-279 -134 -132 0
-281 280 0
-281 130 0
-281 129 -132 0
-281 -129 132 0
281 -280 129 132 -130 0
281 -280 -129 -132 -130 0
283 280 -129 0
283 -280 129 0
-283 280 129 0
-283 -280 -129 0
282 132 -130 0
282 -132 130 0
-282 132 130 0
-282 -132 -130 0
-284 283 0
-284 128 0
-284 127 -130 0
-284 -127 130 0
284 -283 127 130 -128 0
284 -283 -127 -130 -128 0
286 283 -127 0
286 -283 127 0
-286 283 127 0
-286 -283 -127 0
285 130 -128 0
285 -130 128 0
-285 130 128 0
-285 -130 -128 0
-287 286 0
-287 126 0
-287 125 -128 0
-287 -125 128 0
287 -286 125 128 -126 0
287 -286 -125 -128 -126 0
289 286 -125 0
289 -286 125 0
-289 286 125 0
-289 -286 -125 0
288 128 -126 0
288 -128 126 0
-288 128 126 0
-288 -128 -126 0
-290 289 0
-290 124 0
-290 123 -126 0
-290 -123 126 0
290 -289 123 126 -124 0
290 -289 -123 -126 -124 0
292 289 -123 0
292 -289 123 0
-292 289 123 0
-292 -289 -123 0
291 126 -124 0
291 -126 124 0
-291 126 124 0
-291 -126 -124 0
-293 292 0
-293 122 0
-293 121 -124 0
-293 -121 124 0
293 -292 121 124 -122 0
293 -292 -121 -124 -122 0
295 292 -121 0
295 -292 121 0
-295 292 121 0
-295 -292 -121 0
294 124 -122 0
294 -124 122 0
-294 124 122 0
-294 -124 -122 0
-296 295 0
-296 120 0
-296 119 -122 0
-296 -119 122 0
296 -295 119 122 -120 0
296 -295 -119 -122 -120 0
298 295 -119 0
298 -295 119 0
-298 295 119 0
-298 -295 -119 0
297 122 -120 0
297 -122 120 0
-297 122 120 0
-297 -122 -120 0
-299 298 0
-299 118 0
-299 117 -120 0
-299 -117 120 0
299 -298 117 120 -118 0
299 -298 -117 -120 -118 0
301 298 -117 0
301 -298 117 0
-301 298 117 0
-301 -298 -117 0
300 120 -118 0
300 -120 118 0
-300 120 118 0
-300 -120 -118 0
-302 301 0
-302 116 0
-302 115 -118 0
-302 -115 118 0
302 -301 115 118 -116 0
302 -301 -115 -118 -116 0
304 301 -115 0
304 -301 115 0
-304 301 115 0
-304 -301 -115 0
303 118 -116 0
303 -118 116 0
-303 118 116 0
-303 -118 -116 0
-305 304 0
-305 114 0
-305 113 -116 0
-305 -113 116 0
305 -304 113 116 -114 0
305 -304 -113 -116 -114 0
307 304 -113 0
307 -304 113 0
-307 304 113 0
-307 -304 -113 0
306 116 -114 0
306 -116 114 0
-306 116 114 0
-306 -116 -114 0
-308 307 0
-308 112 0
-308 111 -114 0
-308 -111 114 0
308 -307 111 114 -112 0
308 -307 -111 -114 -112 0
310 307 -111 0
310 -307 111 0
-310 307 111 0
-310 -307 -111 0
309 114 -112 0
309 -114 112 0
-309 114 112 0
-309 -114 -112 0
-311 310 0
-311 110 0
-311 109 -112 0
-311 -109 112 0
311 -310 109 112 -110 0
311 -310 -109 -112 -110 0
313 310 -109 0
313 -310 109 0
-313 310 109 0
-313 -310 -109 0
312 112 -110 0
312 -112 110 0
-312 112 110 0
-312 -112 -110 0
-314 313 0
-314 108 0
-314 107 -110 0
-314 -107 110 0
314 -313 107 110 -108 0
314 -313 -107 -110 -108 0
316 313 -107 0
316 -313 107 0
-316 313 107 0
-316 -313 -107 0
315 110 -108 0
315 -110 108 0
-315 110 108 0
-315 -110 -108 0
-317 316 0
-317 106 0
-317 105 -108 0
-317 -105 108 0
317 -316 105 108 -106 0
317 -316 -105 -108 -106 0
319 316 -105 0
319 -316 105 0
-319 316 105 0
-319 -316 -105 0
318 108 -106 0
318 -108 106 0
-318 108 106 0
-318 -108 -106 0
-320 319 0
-320 104 0
-320 103 -106 0
-320 -103 106 0
320 -319 103 106 -104 0
320 -319 -103 -106 -104 0
322 319 -103 0
322 -319 103 0
-322 319 103 0
-322 -319 -103 0
321 106 -104 0
321 -106 104 0
-321 106 104 0
-321 -106 -104 0
-323 322 0
-323 102 0
-323 101 -104 0
-323 -101 104 0
323 -322 101 104 -102 0
323 -322 -101 -104 -102 0
325 322 -101 0
325 -322 101 0
-325 322 101 0
-325 -322 -101 0
324 104 -102 0
324 -104 102 0
-324 104 102 0
-324 -104 -102 0
-326 325 0
-326 100 0
-326 99 -102 0
-326 -99 102 0
326 -325 99 102 -100 0
326 -325 -99 -102 -100 0
328 325 -99 0
328 -325 99 0
-328 325 99 0
-328 -325 -99 0
327 102 -100 0
327 -102 100 0
-327 102 100 0
-327 -102 -100 0
-329 328 0
-329 98 0
-329 97 -100 0
-329 -97 100 0
329 -328 97 100 -98 0
329 -328 -97 -100 -98 0
331 328 -97 0
331 -328 97 0
-331 328 97 0
-331 -328 -97 0
330 100 -98 0
330 -100 98 0
-330 100 98 0
-330 -100 -98 0
-332 331 0
-332 96 0
-332 95 -98 0
-332 -95 98 0
332 -331 95 98 -96 0
332 -331 -95 -98 -96 0
334 331 -95 0
334 -331 95 0
-334 331 95 0
-334 -331 -95 0
333 98 -96 0
333 -98 96 0
-333 98 96 0
-333 -98 -96 0
-335 334 0
-335 94 0
-335 93 -96 0
-335 -93 96 0
335 -334 93 96 -94 0
335 -334 -93 -96 -94 0
337 334 -93 0
337 -334 93 0
-337 334 93 0
-337 -334 -93 0
336 96 -94 0
336 -96 94 0
-336 96 94 0
-336 -96 -94 0
-338 337 0
-338 92 0
-338 91 -94 0
-338 -91 94 0
338 -337 91 94 -92 0
338 -337 -91 -94 -92 0
340 337 -91 0
340 -337 91 0
-340 337 91 0
-340 -337 -91 0
339 94 -92 0
339 -94 92 0
-339 94 92 0
-339 -94 -92 0
-341 340 0
-341 90 0
-341 89 -92 0
-341 -89 92 0
341 -340 89 92 -90 0
341 -340 -89 -92 -90 0
343 340 -89 0
343 -340 89 0
-343 340 89 0
-343 -340 -89 0
342 92 -90 0
342 -92 90 0
-342 92 90 0
-342 -92 -90 0
-344 343 0
-344 88 0
-344 87 -90 0
-344 -87 90 0
344 -343 87 90 -88 0
344 -343 -87 -90 -88 0
346 343 -87 0
346 -343 87 0
-346 343 87 0
-346 -343 -87 0
345 90 -88 0
345 -90 88 0
-345 90 88 0
-345 -90 -88 0
-347 346 0
-347 86 0
-347 85 -88 0
-347 -85 88 0
347 -346 85 88 -86 0
347 -346 -85 -88 -86 0
349 346 -85 0
349 -346 85 0
-349 346 85 0
-349 -346 -85 0
348 88 -86 0
348 -88 86 0
-348 88 86 0
-348 -88 -86 0
-350 349 0
-350 84 0
-350 83 -86 0
-350 -83 86 0
350 -349 83 86 -84 0
350 -349 -83 -86 -84 0
352 349 -83 0
352 -349 83 0
-352 349 83 0
-352 -349 -83 0
351 86 -84 0
351 -86 84 0
-351 86 84 0
-351 -86 -84 0
-353 352 0
-353 82 0
-353 81 -84 0
-353 -81 84 0
353 -352 81 84 -82 0
353 -352 -81 -84 -82 0
355 352 -81 0
355 -352 81 0
-355 352 81 0
-355 -352 -81 0
354 84 -82 0
354 -84 82 0
-354 84 82 0
-354 -84 -82 0
-356 355 0
-356 80 0
-356 79 -82 0
-356 -79 82 0
356 -355 79 82 -80 0
356 -355 -79 -82 -80 0
358 355 -79 0
358 -355 79 0
-358 355 79 0
-358 -355 -79 0
357 82 -80 0
357 -82 80 0
-357 82 80 0
-357 -82 -80 0
-359 358 0
-359 78 0
-359 77 -80 0
-359 -77 80 0
359 -358 77 80 -78 0
359 -358 -77 -80 -78 0
361 358 -77 0
361 -358 77 0
-361 358 77 0
-361 -358 -77 0
360 80 -78 0
360 -80 78 0
-360 80 78 0
-360 -80 -78 0
-362 361 0
-362 76 0
-362 75 -78 0
-362 -75 78 0
362 -361 75 78 -76 0
362 -361 -75 -78 -76 0
364 361 -75 0
364 -361 75 0
-364 361 75 0
-364 -361 -75 0
363 78 -76 0
363 -78 76 0
-363 78 76 0
-363 -78 -76 0
-365 364 0
-365 74 0
-365 73 -76 0
-365 -73 76 0
365 -364 73 76 -74 0
365 -364 -73 -76 -74 0
367 364 -73 0
367 -364 73 0
-367 364 73 0
-367 -364 -73 0
366 76 -74 0
366 -76 74 0
-366 76 74 0
-366 -76 -74 0
-368 367 0
-368 72 0
-368 71 -74 0
-368 -71 74 0
368 -367 71 74 -72 0
368 -367 -71 -74 -72 0
370 367 -71 0
370 -367 71 0
-370 367 71 0
-370 -367 -71 0
369 74 -72 0
369 -74 72 0
-369 74 72 0
-369 -74 -72 0
-371 370 0
-371 70 0
-371 69 -72 0
-371 -69 72 0
371 -370 69 72 -70 0
371 -370 -69 -72 -70 0
373 370 -69 0
373 -370 69 0
-373 370 69 0
-373 -370 -69 0
372 72 -70 0
372 -72 70 0
-372 72 70 0
-372 -72 -70 0
-374 373 0
-374 68 0
-374 67 -70 0
-374 -67 70 0
374 -373 67 70 -68 0
374 -373 -67 -70 -68 0
376 373 -67 0
376 -373 67 0
-376 373 67 0
-376 -373 -67 0
375 70 -68 0
375 -70 68 0
-375 70 68 0
-375 -70 -68 0
-377 376 0
-377 66 0
-377 65 -68 0
-377 -65 68 0
377 -376 65 68 -66 0
377 -376 -65 -68 -66 0
379 376 -65 0
379 -376 65 0
-379 376 65 0
-379 -376 -65 0
378 68 -66 0
378 -68 66 0
-378 68 66 0
-378 -68 -66 0
-380 379 0
-380 64 0
-380 63 -66 0
-380 -63 66 0
380 -379 63 66 -64 0
380 -379 -63 -66 -64 0
382 379 -63 0
382 -379 63 0
-382 379 63 0
-382 -379 -63 0
381 66 -64 0
381 -66 64 0
-381 66 64 0
-381 -66 -64 0
-383 382 0
-383 62 0
-383 61 -64 0
-383 -61 64 0
383 -382 61 64 -62 0
383 -382 -61 -64 -62 0
385 382 -61 0
385 -382 61 0
-385 382 61 0
-385 -382 -61 0
384 64 -62 0
384 -64 62 0
-384 64 62 0
-384 -64 -62 0
-386 385 0
-386 60 0
-386 59 -62 0
-386 -59 62 0
386 -385 59 62 -60 0
386 -385 -59 -62 -60 0
388 385 -59 0
388 -385 59 0
-388 385 59 0
-388 -385 -59 0
387 62 -60 0
387 -62 60 0
-387 62 60 0
-387 -62 -60 0
-389 388 0
-389 58 0
-389 57 -60 0
-389 -57 60 0
389 -388 57 60 -58 0
389 -388 -57 -60 -58 0
391 388 -57 0
391 -388 57 0
-391 388 57 0
-391 -388 -57 0
390 60 -58 0
390 -60 58 0
-390 60 58 0
-390 -60 -58 0
-392 391 0
-392 56 0
-392 55 -58 0
-392 -55 58 0
392 -391 55 58 -56 0
392 -391 -55 -58 -56 0
394 391 -55 0
394 -391 55 0
-394 391 55 0
-394 -391 -55 0
393 58 -56 0
393 -58 56 0
-393 58 56 0
-393 -58 -56 0
-395 394 0
-395 54 0
-395 53 -56 0
-395 -53 56 0
395 -394 53 56 -54 0
395 -394 -53 -56 -54 0
397 394 -53 0
397 -394 53 0
-397 394 53 0
-397 -394 -53 0
396 56 -54 0
396 -56 54 0
-396 56 54 0
-396 -56 -54 0
-398 397 0
-398 52 0
-398 51 -54 0
-398 -51 54 0
398 -397 51 54 -52 0
398 -397 -51 -54 -52 0
400 397 -51 0
400 -397 51 0
-400 397 51 0
-400 -397 -51 0
399 54 -52 0
399 -54 52 0
-399 54 52 0
-399 -54 -52 0
-401 400 0
-401 50 0
-401 49 -52 0
-401 -49 52 0
401 -400 49 52 -50 0
401 -400 -49 -52 -50 0
403 400 -49 0
403 -400 49 0
-403 400 49 0
-403 -400 -49 0
402 52 -50 0
402 -52 50 0
-402 52 50 0
-402 -52 -50 0
-404 403 0
-404 48 0
-404 47 -50 0
-404 -47 50 0
404 -403 47 50 -48 0
404 -403 -47 -50 -48 0
406 403 -47 0
406 -403 47 0
-406 403 47 0
-406 -403 -47 0
405 50 -48 0
405 -50 48 0
-405 50 48 0
-405 -50 -48 0
-407 406 0
-407 46 0
-407 45 -48 0
-407 -45 48 0
407 -406 45 48 -46 0
407 -406 -45 -48 -46 0
409 406 -45 0
409 -406 45 0
-409 406 45 0
-409 -406 -45 0
408 48 -46 0
408 -48 46 0
-408 48 46 0
-408 -48 -46 0
-410 409 0
-410 44 0
-410 43 -46 0
-410 -43 46 0
410 -409 43 46 -44 0
410 -409 -43 -46 -44 0
412 409 -43 0
412 -409 43 0
-412 409 43 0
-412 -409 -43 0
411 46 -44 0
411 -46 44 0
-411 46 44 0
-411 -46 -44 0
-413 412 0
-413 42 0
-413 41 -44 0
-413 -41 44 0
413 -412 41 44 -42 0
413 -412 -41 -44 -42 0
415 412 -41 0
415 -412 41 0
-415 412 41 0
-415 -412 -41 0
414 44 -42 0
414 -44 42 0
-414 44 42 0
-414 -44 -42 0
-416 415 0
-416 40 0
-416 39 -42 0
-416 -39 42 0
416 -415 39 42 -40 0
416 -415 -39 -42 -40 0
418 415 -39 0
418 -415 39 0
-418 415 39 0
-418 -415 -39 0
417 42 -40 0
417 -42 40 0
-417 42 40 0
-417 -42 -40 0
-419 418 0
-419 38 0
-419 37 -40 0
-419 -37 40 0
419 -418 37 40 -38 0
419 -418 -37 -40 -38 0
421 418 -37 0
421 -418 37 0
-421 418 37 0
-421 -418 -37 0
420 40 -38 0
420 -40 38 0
-420 40 38 0
-420 -40 -38 0
-422 421 0
-422 36 0
-422 35 -38 0
-422 -35 38 0
422 -421 35 38 -36 0
422 -421 -35 -38 -36 0
424 421 -35 0
424 -421 35 0
-424 421 35 0
-424 -421 -35 0
423 38 -36 0
423 -38 36 0
-423 38 36 0
-423 -38 -36 0
-425 424 0
-425 34 0
-425 33 -36 0
-425 -33 36 0
425 -424 33 36 -34 0
425 -424 -33 -36 -34 0
427 424 -33 0
427 -424 33 0
-427 424 33 0
-427 -424 -33 0
426 36 -34 0
426 -36 34 0
-426 36 34 0
-426 -36 -34 0
-428 427 0
-428 32 0
-428 31 -34 0
-428 -31 34 0
428 -427 31 34 -32 0
428 -427 -31 -34 -32 0
430 427 -31 0
430 -427 31 0
-430 427 31 0
-430 -427 -31 0
429 34 -32 0
429 -34 32 0
-429 34 32 0
-429 -34 -32 0
-431 430 0
-431 30 0
-431 29 -32 0
-431 -29 32 0
431 -430 29 32 -30 0
431 -430 -29 -32 -30 0
433 430 -29 0
433 -430 29 0
-433 430 29 0
-433 -430 -29 0
432 32 -30 0
432 -32 30 0
-432 32 30 0
-432 -32 -30 0
-434 433 0
-434 28 0
-434 27 -30 0
-434 -27 30 0
434 -433 27 30 -28 0
434 -433 -27 -30 -28 0
436 433 -27 0
436 -433 27 0
-436 433 27 0
-436 -433 -27 0
435 30 -28 0
435 -30 28 0
-435 30 28 0
-435 -30 -28 0
-437 436 0
-437 26 0
-437 25 -28 0
-437 -25 28 0
437 -436 25 28 -26 0
437 -436 -25 -28 -26 0
439 436 -25 0
439 -436 25 0
-439 436 25 0
-439 -436 -25 0
438 28 -26 0
438 -28 26 0
-438 28 26 0
-438 -28 -26 0
-440 439 0
-440 24 0
-440 23 -26 0
-440 -23 26 0
440 -439 23 26 -24 0
440 -439 -23 -26 -24 0
442 439 -23 0
442 -439 23 0
-442 439 23 0
-442 -439 -23 0
441 26 -24 0
441 -26 24 0
-441 26 24 0
-441 -26 -24 0
-443 442 0
-443 22 0
-443 21 -24 0
-443 -21 24 0
443 -442 21 24 -22 0
443 -442 -21 -24 -22 0
445 442 -21 0
445 -442 21 0
-445 442 21 0
-445 -442 -21 0
444 24 -22 0
444 -24 22 0
-444 24 22 0
-444 -24 -22 0
-446 445 0
-446 20 0
-446 19 -22 0
-446 -19 22 0
446 -445 19 22 -20 0
446 -445 -19 -22 -20 0
448 445 -19 0
448 -445 19 0
-448 445 19 0
-448 -445 -19 0
447 22 -20 0
447 -22 20 0
-447 22 20 0
-447 -22 -20 0
-449 448 0
-449 18 0
-449 17 -20 0
-449 -17 20 0
449 -448 17 20 -18 0
449 -448 -17 -20 -18 0
451 448 -17 0
451 -448 17 0
-451 448 17 0
-451 -448 -17 0
450 20 -18 0
450 -20 18 0
-450 20 18 0
-450 -20 -18 0
-452 451 0
-452 16 0
-452 15 -18 0
-452 -15 18 0
452 -451 15 18 -16 0
452 -451 -15 -18 -16 0
454 451 -15 0
454 -451 15 0
-454 451 15 0
-454 -451 -15 0
453 18 -16 0
453 -18 16 0
-453 18 16 0
-453 -18 -16 0
-455 454 0
-455 14 0
-455 13 -16 0
-455 -13 16 0
455 -454 13 16 -14 0
455 -454 -13 -16 -14 0
457 454 -13 0
457 -454 13 0
-457 454 13 0
-457 -454 -13 0
456 16 -14 0
456 -16 14 0
-456 16 14 0
-456 -16 -14 0
-458 457 0
-458 12 0
-458 11 -14 0
-458 -11 14 0
458 -457 11 14 -12 0
458 -457 -11 -14 -12 0
460 457 -11 0
460 -457 11 0
-460 457 11 0
-460 -457 -11 0
459 14 -12 0
459 -14 12 0
-459 14 12 0
-459 -14 -12 0
-461 460 0
-461 10 0
-461 9 -12 0
-461 -9 12 0
461 -460 9 12 -10 0
461 -460 -9 -12 -10 0
463 460 -9 0
463 -460 9 0
-463 460 9 0
-463 -460 -9 0
462 12 -10 0
462 -12 10 0
-462 12 10 0
-462 -12 -10 0
-464 463 0
-464 8 0
-464 7 -10 0
-464 -7 10 0
464 -463 7 10 -8 0
464 -463 -7 -10 -8 0
466 463 -7 0
466 -463 7 0
-466 463 7 0
-466 -463 -7 0
465 10 -8 0
465 -10 8 0
-465 10 8 0
-465 -10 -8 0
-467 466 0
-467 6 0
-467 5 -8 0
-467 -5 8 0
467 -466 5 8 -6 0
467 -466 -5 -8 -6 0
469 466 -5 0
469 -466 5 0
-469 466 5 0
-469 -466 -5 0
468 8 -6 0
468 -8 6 0
-468 8 6 0
-468 -8 -6 0
-470 469 0
-470 4 0
-470 3 -6 0
-470 -3 6 0
470 -469 3 6 -4 0
470 -469 -3 -6 -4 0
472 469 -3 0
472 -469 3 0
-472 469 3 0
-472 -469 -3 0
471 6 -4 0
471 -6 4 0
-471 6 4 0
-471 -6 -4 0
-473 472 0
-473 2 0
-473 1 -4 0
-473 -1 4 0
473 -472 1 4 -2 0
473 -472 -1 -4 -2 0
475 472 -1 0
475 -472 1 0
-475 472 1 0
-475 -472 -1 0
474 4 -2 0
474 -4 2 0
-474 4 2 0
-474 -4 -2 0
-475 0
-472 0
-474 0
-469 0
-471 0
-466 0
-468 0
-463 0
-465 0
-460 0
-462 0
-457 0
-459 0
-454 0
-456 0
-451 0
-453 0
-448 0
-450 0
-445 0
-447 0
-442 0
-444 0
-439 0
-441 0
-436 0
-438 0
-433 0
-435 0
-430 0
-432 0
-427 0
-429 0
-424 0
-426 0
-421 0
-423 0
-418 0
-420 0
-415 0
-417 0
-412 0
-414 0
-409 0
-411 0
-406 0
-408 0
-403 0
-405 0
-400 0
-402 0
-397 0
-399 0
-394 0
-396 0
-391 0
-393 0
-388 0
-390 0
-385 0
-387 0
-382 0
-384 0
-379 0
-381 0
-376 0
-378 0
-373 0
-375 0
-370 0
-372 0
-367 0
-369 0
-364 0
-366 0
-361 0
-363 0
-358 0
-360 0
-355 0
-357 0
-352 0
-354 0
-349 0
-351 0
-346 0
-348 0
-343 0
-345 0
-340 0
-342 0
-337 0
-339 0
-334 0
-336 0
-331 0
-333 0
-328 0
-330 0
-325 0
-327 0
-322 0
-324 0
-319 0
-321 0
-316 0
-318 0
-313 0
-315 0
-310 0
-312 0
-307 0
-309 0
-304 0
-306 0
-301 0
-303 0
-298 0
-300 0
-295 0
-297 0
-292 0
-294 0
-289 0
-291 0
-286 0
-288 0
-283 0
-285 0
-280 0
-282 0
-277 0
-279 0
-274 0
-276 0
-271 0
-273 0
-268 0
-270 0
-265 0
-267 0
-262 0
-264 0
-259 0
-261 0
-256 0
-258 0
-253 0
-255 0
-250 0
-252 0
-247 0
-249 0
-244 0
-246 0
-241 0
-243 0
-238 0
-240 0
-235 0
-237 0
-232 0
-234 0
-229 0
-231 0
-226 0
-228 0
-223 0
-225 0
-220 0
-222 0
-217 0
-219 0
-214 0
-216 0
-211 0
-213 0
-208 0
-210 0
-205 0
-207 0
-202 0
-204 0
-199 0
-201 0
-192 0
-198 0
